old-dataset/large-178.in
50
45
0 1 5.53 0.78
0 2 3.7 24.98
0 3 3.71 26.16
0 4 3.58 25.7
0 5 3.67 25.54
0 6 3.53 25.23
0 7 3.52 25.11
0 8 3.53 25.42
0 9 3.68 25.91
0 10 3.88 25.09
0 11 3.63 25.6
0 12 3.71 25.8
0 13 3.54 26.54
0 14 3.86 25.2
0 15 3.6 25.9
0 16 3.77 24.95
0 17 3.76 24.73
0 18 3.67 26.4
0 19 3.77 25.21
0 20 3.72 25.1
0 21 3.65 25.7
0 22 3.56 25.46
0 23 3.68 25.61
0 24 3.8 24.8
0 25 3.73 26.5
0 26 3.85 26.04
0 27 3.66 25.8
0 28 3.69 26.06
0 29 3.61 24.96
0 30 5.48 0.78
0 31 3.77 26.43
0 32 3.84 25.8
0 33 3.64 24.8
0 34 3.61 26.15
0 35 3.56 26.69
0 36 3.6 24.7
0 37 3.64 25.42
0 38 3.74 25.0
0 39 3.59 26.3
0 40 3.78 26.22
0 41 3.6 25.1
0 42 3.58 25.89
0 43 3.54 24.76
0 44 3.86 26.15
0 45 3.57 26.0
0 46 3.54 26.1
0 47 3.64 24.82
0 48 3.6 25.06
0 49 3.81 25.67
1 2 3.89 25.88
1 3 3.82 25.6
1 4 3.61 25.83
1 5 3.82 24.98
1 6 3.6 26.59
1 7 3.53 25.63
1 8 3.73 26.64
1 9 3.7 25.03
1 10 3.54 24.8
1 11 3.61 26.67
1 12 3.88 25.63
1 13 3.83 25.07
1 14 3.66 25.99
1 15 3.78 24.87
1 16 3.57 25.39
1 17 3.62 25.7
1 18 3.78 24.9
1 19 3.63 25.92
1 20 3.77 25.7
1 21 3.5 25.9
1 22 3.8 25.5
1 23 3.82 25.26
1 24 3.84 26.1
1 25 3.82 25.5
1 26 3.62 25.2
1 27 3.53 25.4
1 28 3.7 26.5
1 29 3.77 25.6
1 30 5.74 0.78
1 31 3.54 25.1
1 32 3.61 25.9
1 33 3.59 24.7
1 34 3.75 25.6
1 35 3.64 25.57
1 36 3.89 26.6
1 37 3.66 25.12
1 38 3.84 26.38
1 39 3.7 26.0
1 40 3.74 26.1
1 41 3.68 25.33
1 42 3.69 26.5
1 43 3.74 24.76
1 44 3.75 26.2
1 45 3.83 25.14
1 46 3.53 26.07
1 47 3.69 26.3
1 48 3.88 26.1
1 49 3.73 25.6
2 3 3.85 26.12
2 4 3.78 25.05
2 5 3.66 25.1
2 6 3.65 24.8
2 7 3.83 26.2
2 8 3.55 25.85
2 9 3.51 25.1
2 10 3.66 26.3
2 11 3.83 26.24
2 12 3.51 26.24
2 13 3.75 26.04
2 14 3.77 25.6
2 15 3.69 25.86
2 16 3.88 25.4
2 17 3.89 26.64
2 18 3.7 25.6
2 19 3.79 25.3
2 20 3.7 24.87
2 21 3.75 24.7
2 22 3.59 26.46
2 23 3.64 25.77
2 24 3.65 26.1
2 25 3.79 26.1
2 26 3.76 26.1
2 27 3.87 26.42
2 28 3.8 25.5
2 29 3.89 26.2
2 30 3.66 25.21
2 31 4.46 0.78
2 32 5.71 0.8
2 33 3.68 26.23
2 34 3.59 26.7
2 35 3.88 25.9
2 36 3.8 25.65
2 37 3.66 25.6
2 38 3.52 26.47
2 39 3.81 26.63
2 40 3.58 25.9
2 41 3.56 26.46
2 42 3.76 26.7
2 43 3.79 26.45
2 44 3.85 26.5
2 45 3.9 26.6
2 46 3.67 25.46
2 47 3.6 25.82
2 48 3.52 26.6
2 49 3.74 26.2
3 4 3.64 25.1
3 5 3.54 25.66
3 6 3.82 26.2
3 7 3.88 25.64
3 8 3.83 25.8
3 9 3.81 25.93
3 10 3.77 25.9
3 11 3.89 25.8
3 12 3.79 26.63
3 13 3.53 26.2
3 14 3.76 25.2
3 15 3.71 25.94
3 16 3.65 26.12
3 17 3.54 25.6
3 18 3.71 26.3
3 19 3.62 25.76
3 20 3.53 26.6
3 21 3.5 26.6
3 22 3.88 26.4
3 23 3.74 25.8
3 24 3.8 25.26
3 25 3.74 24.9
3 26 3.59 25.3
3 27 3.82 25.54
3 28 3.55 24.7
3 29 3.5 25.7
3 30 3.82 25.7
3 31 3.87 26.01
3 32 3.51 24.82
3 33 4.94 0.8
3 34 5.44 0.8
3 35 3.82 26.5
3 36 3.62 26.65
3 37 3.67 24.9
3 38 3.62 26.49
3 39 3.56 24.7
3 40 3.74 25.55
3 41 3.73 25.3
3 42 3.88 25.2
3 43 3.62 26.6
3 44 3.89 25.3
3 45 3.54 25.7
3 46 3.84 25.8
3 47 3.55 26.4
3 48 3.67 25.8
3 49 3.79 25.37
4 5 4.0 0.8
4 6 3.58 25.1
4 7 3.76 25.6
4 8 3.66 26.6
4 9 3.54 24.85
4 10 3.76 26.7
4 11 3.83 26.0
4 12 3.55 26.48
4 13 3.56 24.8
4 14 3.85 25.9
4 15 3.66 25.6
4 16 3.86 26.49
4 17 3.77 25.8
4 18 3.62 25.1
4 19 3.71 26.0
4 20 3.77 26.1
4 21 3.67 25.4
4 22 3.66 25.27
4 23 3.65 26.12
4 24 3.74 25.1
4 25 3.83 24.96
4 26 3.66 25.7
4 27 3.74 25.22
4 28 3.54 26.66
4 29 3.56 25.5
4 30 3.78 25.27
4 31 3.65 25.23
4 32 3.5 26.3
4 33 3.83 26.47
4 34 3.57 24.9
4 35 4.41 0.8
4 36 3.72 25.08
4 37 3.81 25.15
4 38 3.68 25.67
4 39 3.73 26.03
4 40 3.81 26.0
4 41 3.65 26.6
4 42 3.73 24.94
4 43 3.65 25.1
4 44 3.57 24.75
4 45 3.8 25.9
4 46 3.76 24.97
4 47 3.77 25.7
4 48 3.88 24.9
4 49 3.51 26.04
5 6 3.72 26.5
5 7 3.82 25.38
5 8 3.66 25.99
5 9 3.8 24.9
5 10 3.9 26.18
5 11 3.55 25.9
5 12 3.87 25.77
5 13 3.86 25.29
5 14 3.84 26.4
5 15 3.72 25.0
5 16 3.89 25.36
5 17 3.71 26.37
5 18 3.87 26.0
5 19 3.9 26.1
5 20 3.63 25.83
5 21 3.73 25.83
5 22 3.69 24.7
5 23 3.63 25.59
5 24 3.87 24.82
5 25 3.62 26.2
5 26 3.51 25.78
5 27 3.88 26.3
5 28 3.63 26.6
5 29 3.62 26.09
5 30 3.76 25.7
5 31 3.56 25.1
5 32 3.7 25.92
5 33 3.82 25.39
5 34 3.68 26.39
5 35 4.3 0.78
5 36 3.87 24.91
5 37 3.7 25.05
5 38 3.51 24.8
5 39 3.6 25.54
5 40 3.9 26.6
5 41 3.75 26.49
5 42 3.76 25.47
5 43 3.79 25.83
5 44 3.71 24.96
5 45 3.88 26.2
5 46 3.78 25.83
5 47 3.73 25.9
5 48 3.8 26.1
5 49 3.72 25.6
6 7 3.87 26.57
6 8 3.57 25.56
6 9 3.56 26.11
6 10 3.63 25.6
6 11 3.63 25.9
6 12 3.54 25.1
6 13 3.77 26.09
6 14 3.87 24.8
6 15 3.88 25.2
6 16 3.72 25.0
6 17 3.75 25.1
6 18 3.77 26.64
6 19 3.74 25.82
6 20 3.74 25.81
6 21 3.78 25.0
6 22 3.82 26.52
6 23 3.75 25.05
6 24 3.69 26.4
6 25 3.81 25.29
6 26 3.75 25.95
6 27 3.67 26.4
6 28 3.5 25.46
6 29 3.81 25.5
6 30 3.61 26.1
6 31 3.6 26.6
6 32 3.51 25.5
6 33 3.74 25.7
6 34 3.76 24.7
6 35 3.75 24.91
6 36 5.88 0.8
6 37 5.47 0.8
6 38 3.87 26.1
6 39 3.9 24.89
6 40 3.61 25.82
6 41 3.87 25.2
6 42 3.55 25.78
6 43 3.61 26.02
6 44 3.62 24.84
6 45 3.77 24.9
6 46 3.9 25.51
6 47 3.85 25.4
6 48 3.55 25.9
6 49 3.5 25.5
7 8 5.72 0.78
7 9 3.69 25.36
7 10 3.66 26.58
7 11 3.7 25.83
7 12 3.89 25.59
7 13 3.77 26.21
7 14 3.52 26.25
7 15 3.54 26.2
7 16 3.75 26.5
7 17 3.84 25.5
7 18 3.84 26.18
7 19 3.88 26.5
7 20 3.59 26.5
7 21 3.64 26.28
7 22 3.56 26.7
7 23 3.81 25.62
7 24 3.6 26.3
7 25 3.54 25.21
7 26 3.69 26.37
7 27 3.88 25.73
7 28 3.9 25.81
7 29 3.79 25.06
7 30 3.63 25.4
7 31 3.75 26.3
7 32 3.73 26.4
7 33 3.68 26.1
7 34 3.81 25.0
7 35 3.83 25.97
7 36 3.8 24.8
7 37 3.73 26.19
7 38 5.13 0.78
7 39 3.64 25.4
7 40 3.65 25.3
7 41 3.67 25.96
7 42 3.77 26.6
7 43 3.81 25.07
7 44 3.8 25.21
7 45 3.52 26.6
7 46 3.52 26.2
7 47 3.87 25.9
7 48 3.71 25.41
7 49 3.87 26.3
8 9 3.62 25.3
8 10 3.87 25.9
8 11 3.74 24.93
8 12 3.65 26.5
8 13 3.61 26.24
8 14 3.52 25.7
8 15 3.6 26.1
8 16 3.79 25.6
8 17 3.78 25.7
8 18 3.86 25.54
8 19 3.67 25.91
8 20 3.55 25.7
8 21 3.9 26.15
8 22 3.85 24.9
8 23 3.79 26.7
8 24 3.6 26.31
8 25 3.81 26.7
8 26 3.86 26.0
8 27 3.65 25.31
8 28 3.59 26.4
8 29 3.89 26.0
8 30 3.82 25.3
8 31 3.54 26.64
8 32 3.61 24.8
8 33 3.69 25.03
8 34 3.52 25.8
8 35 3.63 26.3
8 36 3.66 25.3
8 37 3.53 26.1
8 38 4.32 0.78
8 39 3.54 25.8
8 40 3.71 24.76
8 41 3.61 25.72
8 42 3.86 26.0
8 43 3.66 26.2
8 44 3.65 26.19
8 45 3.88 25.15
8 46 3.75 24.94
8 47 3.58 26.3
8 48 3.86 24.7
8 49 3.84 26.5
9 10 3.71 25.9
9 11 3.78 26.33
9 12 3.53 24.8
9 13 3.57 26.22
9 14 3.55 25.7
9 15 3.55 25.03
9 16 3.75 25.75
9 17 3.6 25.7
9 18 3.8 26.4
9 19 3.83 26.2
9 20 3.66 26.53
9 21 3.56 26.4
9 22 3.58 25.1
9 23 3.74 25.0
9 24 3.7 25.63
9 25 3.57 25.0
9 26 3.87 26.2
9 27 3.87 24.8
9 28 3.88 25.8
9 29 5.49 0.78
9 30 3.89 26.3
9 31 3.65 25.8
9 32 3.74 25.8
9 33 3.87 25.8
9 34 3.75 26.6
9 35 3.62 24.7
9 36 3.77 25.7
9 37 3.77 24.8
9 38 3.64 25.9
9 39 5.23 0.8
9 40 3.53 26.3
9 41 3.66 25.2
9 42 3.81 26.11
9 43 3.56 26.59
9 44 3.63 25.0
9 45 3.78 25.4
9 46 3.8 25.37
9 47 3.54 26.6
9 48 3.69 25.5
9 49 3.86 26.6
10 11 5.79 1.0
10 12 3.6 26.19
10 13 3.76 26.63
10 14 3.85 25.07
10 15 3.5 25.9
10 16 3.84 25.9
10 17 3.52 25.6
10 18 3.88 26.6
10 19 3.52 24.8
10 20 3.8 24.95
10 21 3.89 26.6
10 22 3.53 24.89
10 23 3.78 25.3
10 24 3.55 25.44
10 25 3.57 26.4
10 26 3.71 26.2
10 27 3.53 25.8
10 28 3.84 25.31
10 29 3.54 25.5
10 30 3.53 26.0
10 31 3.67 26.2
10 32 3.85 25.2
10 33 3.88 25.62
10 34 3.52 25.49
10 35 3.61 26.7
10 36 3.54 26.32
10 37 3.8 25.58
10 38 3.65 25.3
10 39 3.53 24.8
10 40 3.83 25.8
10 41 3.74 26.3
10 42 3.78 25.75
10 43 3.83 25.5
10 44 3.85 25.45
10 45 3.61 26.26
10 46 3.74 25.12
10 47 3.82 26.5
10 48 3.73 24.94
10 49 3.74 26.13
11 12 3.56 26.61
11 13 3.52 25.9
11 14 3.51 26.2
11 15 3.89 24.8
11 16 3.57 26.3
11 17 3.82 26.53
11 18 3.53 24.92
11 19 3.75 26.16
11 20 3.77 26.67
11 21 3.85 26.6
11 22 3.56 26.2
11 23 3.76 25.94
11 24 3.83 25.21
11 25 3.89 25.8
11 26 3.88 26.3
11 27 3.63 25.7
11 28 3.75 24.74
11 29 3.67 26.5
11 30 3.6 26.34
11 31 3.65 25.81
11 32 3.66 25.4
11 33 3.64 26.35
11 34 3.75 25.98
11 35 3.58 24.8
11 36 3.61 24.9
11 37 3.83 26.1
11 38 3.75 24.7
11 39 3.7 24.76
11 40 3.83 25.49
11 41 3.71 25.66
11 42 3.58 26.6
11 43 3.74 25.8
11 44 3.54 26.1
11 45 3.83 25.7
11 46 3.87 25.43
11 47 3.84 25.64
11 48 3.6 24.89
11 49 3.82 24.9
12 13 5.67 0.8
12 14 5.56 0.78
12 15 3.7 24.8
12 16 3.54 25.1
12 17 3.85 26.6
12 18 3.53 25.11
12 19 3.78 25.0
12 20 3.59 26.21
12 21 3.72 24.8
12 22 3.57 25.13
12 23 3.69 25.6
12 24 3.86 25.1
12 25 3.63 25.5
12 26 3.52 26.0
12 27 3.66 26.42
12 28 3.51 26.0
12 29 3.85 26.4
12 30 3.61 25.46
12 31 3.58 25.0
12 32 3.89 25.3
12 33 3.61 26.11
12 34 3.56 25.33
12 35 3.72 26.6
12 36 3.83 25.0
12 37 3.82 24.8
12 38 3.54 26.41
12 39 3.62 25.3
12 40 3.64 26.69
12 41 3.53 26.3
12 42 3.84 25.74
12 43 3.87 25.11
12 44 3.66 24.74
12 45 3.76 24.83
12 46 3.85 25.63
12 47 3.79 25.3
12 48 3.56 25.0
12 49 3.52 26.6
13 14 5.43 0.78
13 15 3.78 26.6
13 16 3.68 25.04
13 17 3.66 25.4
13 18 3.88 26.47
13 19 3.77 25.3
13 20 3.89 24.8
13 21 3.73 24.8
13 22 3.65 24.8
13 23 3.5 25.4
13 24 3.63 25.63
13 25 3.85 25.9
13 26 3.79 25.3
13 27 3.84 25.7
13 28 3.72 24.97
13 29 3.77 24.92
13 30 3.55 26.65
13 31 3.75 25.1
13 32 3.65 26.21
13 33 3.62 24.9
13 34 3.66 26.7
13 35 3.88 25.1
13 36 3.68 25.1
13 37 3.86 25.45
13 38 3.72 24.9
13 39 3.78 25.88
13 40 3.66 25.9
13 41 3.59 26.4
13 42 3.62 24.81
13 43 3.88 26.45
13 44 3.67 25.6
13 45 3.84 25.04
13 46 3.56 25.81
13 47 3.63 26.45
13 48 3.79 24.8
13 49 3.8 25.07
14 15 3.65 26.6
14 16 3.57 25.1
14 17 3.6 25.56
14 18 3.68 24.9
14 19 3.82 24.93
14 20 3.53 26.05
14 21 3.9 24.8
14 22 3.86 24.94
14 23 3.64 26.2
14 24 3.84 25.0
14 25 3.65 26.01
14 26 3.73 26.1
14 27 3.5 24.99
14 28 3.51 24.9
14 29 3.7 26.5
14 30 3.8 26.57
14 31 3.55 25.99
14 32 3.73 25.76
14 33 3.86 26.05
14 34 3.78 26.54
14 35 3.68 26.46
14 36 3.84 25.5
14 37 3.54 26.1
14 38 3.64 26.39
14 39 3.53 25.9
14 40 3.51 24.8
14 41 3.79 25.93
14 42 3.66 24.9
14 43 3.58 25.15
14 44 3.51 25.62
14 45 3.82 24.9
14 46 3.89 25.47
14 47 3.6 25.1
14 48 3.86 26.5
14 49 3.82 26.0
15 16 4.73 0.78
15 17 4.5 0.78
15 18 3.75 25.97
15 19 3.54 26.1
15 20 3.88 24.79
15 21 3.74 26.0
15 22 3.76 25.57
15 23 3.55 25.1
15 24 3.83 25.1
15 25 3.61 25.25
15 26 3.53 24.91
15 27 3.5 25.3
15 28 3.86 25.99
15 29 3.59 26.61
15 30 3.68 25.6
15 31 3.5 24.8
15 32 3.69 25.69
15 33 3.8 25.84
15 34 3.65 25.6
15 35 3.53 25.55
15 36 3.64 26.67
15 37 3.63 25.7
15 38 3.69 25.72
15 39 3.53 25.0
15 40 3.6 25.4
15 41 3.7 25.6
15 42 3.54 26.7
15 43 3.59 25.0
15 44 3.74 26.6
15 45 3.67 25.0
15 46 3.89 26.57
15 47 3.57 26.24
15 48 3.77 24.8
15 49 3.85 24.8
16 17 5.61 0.78
16 18 3.57 25.9
16 19 3.56 26.0
16 20 3.68 25.2
16 21 3.88 25.2
16 22 3.82 25.6
16 23 3.58 26.06
16 24 3.64 26.4
16 25 3.8 25.1
16 26 3.56 25.44
16 27 3.66 24.8
16 28 3.65 26.3
16 29 3.74 25.0
16 30 3.51 25.6
16 31 3.63 25.95
16 32 3.7 25.0
16 33 3.84 25.8
16 34 3.72 24.8
16 35 3.64 25.66
16 36 3.6 25.1
16 37 3.76 26.03
16 38 3.84 26.3
16 39 3.76 25.3
16 40 3.81 25.87
16 41 3.77 26.02
16 42 3.83 26.2
16 43 3.69 25.51
16 44 3.59 26.14
16 45 3.84 26.3
16 46 3.68 26.7
16 47 3.75 26.2
16 48 3.83 25.85
16 49 3.82 25.7
17 18 3.7 26.3
17 19 3.69 25.7
17 20 3.53 26.49
17 21 3.78 26.6
17 22 3.81 25.8
17 23 3.62 26.3
17 24 3.77 25.0
17 25 3.58 26.5
17 26 3.79 24.7
17 27 3.72 25.9
17 28 3.67 26.57
17 29 3.7 26.4
17 30 3.51 25.1
17 31 3.78 26.12
17 32 3.52 24.97
17 33 3.64 26.1
17 34 3.64 25.6
17 35 3.51 26.14
17 36 3.59 25.29
17 37 3.53 25.0
17 38 3.69 26.7
17 39 3.79 25.99
17 40 3.57 25.86
17 41 3.88 26.23
17 42 3.65 26.54
17 43 3.85 26.5
17 44 3.51 25.43
17 45 3.62 25.14
17 46 3.84 25.3
17 47 3.66 26.2
17 48 3.63 25.2
17 49 3.63 26.67
18 19 5.99 0.8
18 20 3.52 26.4
18 21 3.51 25.8
18 22 3.57 26.3
18 23 3.53 26.3
18 24 3.78 25.69
18 25 3.69 26.38
18 26 3.8 25.6
18 27 3.85 26.22
18 28 3.66 25.13
18 29 3.73 24.87
18 30 3.6 25.2
18 31 3.52 24.99
18 32 3.53 26.0
18 33 3.75 24.8
18 34 3.75 26.4
18 35 3.58 25.41
18 36 3.8 26.32
18 37 3.7 26.1
18 38 3.85 25.85
18 39 3.55 25.19
18 40 3.67 25.7
18 41 3.81 26.1
18 42 3.64 25.89
18 43 3.76 25.5
18 44 3.6 25.6
18 45 3.85 26.12
18 46 3.65 26.62
18 47 3.6 25.78
18 48 3.74 25.58
18 49 4.28 0.8
19 20 3.59 25.0
19 21 3.76 26.36
19 22 3.89 26.3
19 23 3.77 25.5
19 24 3.85 26.29
19 25 3.54 26.58
19 26 3.51 26.07
19 27 3.54 26.5
19 28 3.55 24.93
19 29 3.81 25.2
19 30 3.81 25.42
19 31 3.69 24.8
19 32 3.84 25.7
19 33 3.89 26.14
19 34 3.72 25.6
19 35 3.75 25.89
19 36 3.75 26.39
19 37 3.86 25.7
19 38 3.66 26.5
19 39 3.81 24.8
19 40 3.83 25.97
19 41 3.85 26.58
19 42 3.73 26.7
19 43 3.66 25.0
19 44 3.75 25.97
19 45 3.59 25.25
19 46 3.74 26.3
19 47 3.74 26.66
19 48 3.73 26.7
19 49 4.39 0.8
20 21 3.62 25.71
20 22 3.69 26.2
20 23 3.73 24.78
20 24 3.75 25.6
20 25 3.84 26.49
20 26 3.64 25.67
20 27 3.52 25.97
20 28 3.73 26.42
20 29 3.82 25.95
20 30 3.73 25.06
20 31 3.68 25.8
20 32 3.88 24.75
20 33 3.57 25.8
20 34 3.59 25.67
20 35 3.75 24.8
20 36 3.53 26.6
20 37 3.63 24.99
20 38 3.76 25.2
20 39 3.84 24.94
20 40 4.44 0.78
20 41 4.77 0.78
20 42 3.75 25.5
20 43 3.51 26.1
20 44 3.76 25.6
20 45 3.64 25.68
20 46 3.65 26.5
20 47 3.67 25.46
20 48 3.63 26.01
20 49 3.75 25.16
21 22 5.83 0.8
21 23 3.64 26.0
21 24 3.57 26.1
21 25 3.84 25.7
21 26 3.75 24.98
21 27 3.9 25.65
21 28 3.7 24.7
21 29 3.56 25.9
21 30 3.71 26.47
21 31 3.85 25.7
21 32 3.75 25.19
21 33 3.79 25.7
21 34 3.87 26.6
21 35 3.7 25.0
21 36 3.79 26.7
21 37 3.7 25.3
21 38 3.57 25.69
21 39 3.66 26.0
21 40 3.72 25.7
21 41 3.69 25.5
21 42 4.34 0.78
21 43 3.72 24.73
21 44 3.63 25.7
21 45 3.65 25.33
21 46 3.72 26.6
21 47 3.57 25.48
21 48 3.84 26.5
21 49 3.78 25.4
22 23 3.52 25.67
22 24 3.57 25.6
22 25 3.75 24.73
22 26 3.75 26.71
22 27 3.52 26.1
22 28 3.86 24.87
22 29 3.62 25.3
22 30 3.84 26.4
22 31 3.69 26.3
22 32 3.77 24.99
22 33 3.75 26.5
22 34 3.74 26.0
22 35 3.6 26.21
22 36 3.79 26.21
22 37 3.78 26.39
22 38 3.67 25.4
22 39 3.71 25.48
22 40 3.55 25.09
22 41 3.79 25.0
22 42 4.81 0.8
22 43 3.86 26.69
22 44 3.76 25.5
22 45 3.51 26.2
22 46 3.58 24.75
22 47 3.71 24.75
22 48 3.73 25.8
22 49 3.89 26.42
23 24 5.31 0.78
23 25 3.5 25.14
23 26 3.74 24.9
23 27 3.84 26.56
23 28 3.63 25.72
23 29 3.51 26.0
23 30 3.62 26.47
23 31 3.54 26.3
23 32 3.71 25.59
23 33 3.61 25.71
23 34 3.6 25.04
23 35 3.55 25.48
23 36 3.61 25.4
23 37 3.77 26.7
23 38 3.56 25.18
23 39 3.81 26.5
23 40 3.53 26.48
23 41 3.68 26.42
23 42 3.66 26.47
23 43 5.96 0.8
23 44 3.61 26.12
23 45 3.84 26.62
23 46 3.61 25.4
23 47 3.61 24.86
23 48 3.7 25.9
23 49 3.6 25.3
24 25 3.74 26.27
24 26 3.6 25.5
24 27 3.53 26.41
24 28 3.63 25.7
24 29 3.56 26.01
24 30 3.63 24.8
24 31 3.6 25.47
24 32 3.82 26.1
24 33 3.9 26.6
24 34 3.77 26.15
24 35 3.81 26.13
24 36 3.83 25.49
24 37 3.52 24.8
24 38 3.8 25.8
24 39 3.84 25.6
24 40 3.66 26.59
24 41 3.58 24.94
24 42 3.72 25.2
24 43 5.54 0.78
24 44 3.67 25.72
24 45 3.72 26.5
24 46 3.59 25.79
24 47 3.84 25.9
24 48 3.69 25.59
24 49 3.73 25.8
25 26 3.83 26.32
25 27 3.62 26.5
25 28 3.52 26.1
25 29 3.88 25.43
25 30 3.58 25.7
25 31 3.6 25.2
25 32 3.78 25.01
25 33 3.73 24.9
25 34 3.76 26.6
25 35 3.79 26.6
25 36 3.65 25.33
25 37 3.65 24.8
25 38 3.71 26.0
25 39 3.59 24.8
25 40 3.8 26.5
25 41 3.76 26.6
25 42 3.62 25.29
25 43 3.61 25.3
25 44 5.77 0.78
25 45 4.7 0.78
25 46 3.87 26.45
25 47 3.74 25.5
25 48 3.68 26.15
25 49 3.63 26.0
26 27 4.4 0.78
26 28 3.73 26.5
26 29 3.83 26.7
26 30 3.65 25.7
26 31 3.59 24.9
26 32 3.67 26.66
26 33 3.51 26.2
26 34 3.8 26.5
26 35 3.77 25.6
26 36 3.65 26.4
26 37 3.83 26.1
26 38 3.77 26.4
26 39 3.77 25.03
26 40 3.86 26.5
26 41 3.89 25.6
26 42 3.6 25.91
26 43 3.7 25.0
26 44 3.9 25.6
26 45 3.65 26.23
26 46 4.45 0.78
26 47 3.5 25.06
26 48 3.73 25.68
26 49 3.64 26.01
27 28 3.88 25.99
27 29 3.89 26.13
27 30 3.67 25.33
27 31 3.83 25.29
27 32 3.82 26.4
27 33 3.88 24.86
27 34 3.61 26.2
27 35 3.71 26.67
27 36 3.72 26.21
27 37 3.56 25.2
27 38 3.57 24.8
27 39 3.85 24.8
27 40 3.8 25.8
27 41 3.78 25.38
27 42 3.87 26.4
27 43 3.72 25.1
27 44 3.68 26.62
27 45 3.58 26.03
27 46 4.33 0.78
27 47 3.65 25.82
27 48 3.85 26.1
27 49 3.86 25.11
28 29 3.64 26.7
28 30 3.73 25.04
28 31 3.86 26.3
28 32 3.71 25.6
28 33 3.84 26.39
28 34 3.84 25.2
28 35 3.85 24.9
28 36 3.55 25.2
28 37 3.83 26.2
28 38 3.88 25.5
28 39 3.6 25.84
28 40 3.6 25.5
28 41 3.73 24.76
28 42 3.81 25.59
28 43 3.71 25.7
28 44 3.82 26.68
28 45 3.58 26.4
28 46 3.9 25.5
28 47 4.46 0.8
28 48 4.06 0.8
28 49 3.54 25.79
29 30 3.83 25.8
29 31 3.75 26.05
29 32 3.87 26.46
29 33 3.64 24.8
29 34 3.67 26.1
29 35 3.85 25.3
29 36 3.62 24.85
29 37 3.7 25.8
29 38 3.7 25.15
29 39 4.87 0.78
29 40 3.76 26.29
29 41 3.63 26.38
29 42 3.82 25.9
29 43 3.65 25.6
29 44 3.54 26.25
29 45 3.76 24.89
29 46 3.86 25.42
29 47 3.69 25.9
29 48 3.79 24.8
29 49 3.52 26.19
30 31 3.69 25.3
30 32 3.85 26.3
30 33 3.82 26.02
30 34 3.71 26.1
30 35 3.88 26.28
30 36 3.68 26.65
30 37 3.63 25.67
30 38 3.61 25.1
30 39 3.72 25.1
30 40 3.78 26.1
30 41 3.57 26.6
30 42 3.75 26.19
30 43 3.89 24.94
30 44 3.62 25.9
30 45 3.64 24.96
30 46 3.9 26.69
30 47 3.81 26.2
30 48 3.57 25.7
30 49 3.63 26.0
31 32 4.97 0.8
31 33 3.72 26.04
31 34 3.58 26.0
31 35 3.9 25.68
31 36 3.8 26.5
31 37 3.5 25.65
31 38 3.51 25.5
31 39 3.8 26.71
31 40 3.61 25.8
31 41 3.87 25.9
31 42 3.9 25.82
31 43 3.75 25.5
31 44 3.57 25.72
31 45 3.62 25.91
31 46 3.89 26.1
31 47 3.78 25.5
31 48 3.82 25.02
31 49 3.58 26.1
32 33 3.57 26.64
32 34 3.54 25.89
32 35 3.7 24.89
32 36 3.72 25.57
32 37 3.56 24.74
32 38 3.85 25.6
32 39 3.74 25.0
32 40 3.67 24.9
32 41 3.86 25.0
32 42 3.74 24.77
32 43 3.82 25.04
32 44 3.53 26.4
32 45 3.64 25.0
32 46 3.82 25.9
32 47 3.81 25.9
32 48 3.88 25.9
32 49 3.9 25.25
33 34 4.42 0.78
33 35 3.81 26.7
33 36 3.85 24.72
33 37 3.67 25.86
33 38 3.76 25.16
33 39 3.55 26.46
33 40 3.51 25.0
33 41 3.54 25.9
33 42 3.57 26.3
33 43 3.85 25.48
33 44 3.69 25.81
33 45 3.57 25.1
33 46 3.67 26.6
33 47 3.81 25.81
33 48 3.73 26.5
33 49 3.7 25.75
34 35 3.76 26.7
34 36 3.63 26.0
34 37 3.64 25.6
34 38 3.89 25.1
34 39 3.67 25.0
34 40 3.88 24.81
34 41 3.8 24.81
34 42 3.76 26.6
34 43 3.52 26.49
34 44 3.86 25.8
34 45 3.67 26.36
34 46 3.68 26.05
34 47 3.5 24.9
34 48 3.67 25.91
34 49 3.71 26.2
35 36 3.56 26.3
35 37 3.62 26.6
35 38 3.68 26.39
35 39 3.79 25.3
35 40 3.58 25.6
35 41 3.71 25.5
35 42 3.9 25.88
35 43 3.8 25.4
35 44 3.54 24.8
35 45 3.87 25.92
35 46 3.56 25.3
35 47 3.81 25.7
35 48 3.71 25.13
35 49 3.56 26.4
36 37 5.49 0.78
36 38 3.74 26.29
36 39 3.74 26.11
36 40 3.5 26.2
36 41 3.56 26.3
36 42 3.87 25.1
36 43 3.77 25.7
36 44 3.88 24.84
36 45 3.54 26.1
36 46 3.86 25.3
36 47 3.56 26.04
36 48 3.89 25.7
36 49 3.67 25.4
37 38 3.83 26.7
37 39 3.65 25.08
37 40 3.77 24.8
37 41 3.64 26.1
37 42 3.77 25.75
37 43 3.85 25.13
37 44 3.53 26.0
37 45 3.78 26.6
37 46 3.77 25.01
37 47 3.51 26.1
37 48 3.75 26.3
37 49 3.75 25.2
38 39 3.68 26.1
38 40 3.77 26.7
38 41 3.72 25.1
38 42 3.9 25.4
38 43 3.89 25.7
38 44 3.9 26.63
38 45 3.65 26.57
38 46 3.71 24.92
38 47 3.76 25.2
38 48 3.86 25.81
38 49 3.54 24.8
39 40 3.82 25.6
39 41 3.75 26.14
39 42 3.63 25.65
39 43 3.7 26.4
39 44 3.85 24.95
39 45 3.79 25.43
39 46 3.89 26.38
39 47 3.9 25.63
39 48 3.87 25.04
39 49 3.84 26.3
40 41 4.98 0.8
40 42 3.64 25.6
40 43 3.86 25.2
40 44 3.57 25.77
40 45 3.61 24.9
40 46 3.52 26.5
40 47 3.74 25.68
40 48 3.67 26.5
40 49 3.79 26.3
41 42 3.56 26.0
41 43 3.55 26.6
41 44 3.75 25.2
41 45 3.58 26.6
41 46 3.57 25.7
41 47 3.6 26.68
41 48 3.74 25.6
41 49 3.84 26.46
42 43 3.78 25.3
42 44 3.69 25.85
42 45 3.76 24.9
42 46 3.75 24.7
42 47 3.82 26.67
42 48 3.54 26.0
42 49 3.73 26.5
43 44 3.81 26.6
43 45 3.68 26.0
43 46 3.86 25.0
43 47 3.77 26.13
43 48 3.7 26.0
43 49 3.67 25.1
44 45 4.37 0.78
44 46 3.78 25.9
44 47 3.5 25.4
44 48 3.59 24.85
44 49 3.61 25.69
45 46 3.53 26.0
45 47 3.5 24.9
45 48 3.89 25.2
45 49 3.9 25.69
46 47 3.82 26.3
46 48 3.9 25.7
46 49 3.57 26.4
47 48 4.83 0.78
47 49 3.81 24.84
48 49 3.71 26.38