DpOutput/large-178.out
8.64
47
47
